
(set-logic BV)

(define-fun shr1 ((x (BitVec 64))) (BitVec 64) (bvlshr x #x0000000000000001))
(define-fun shr4 ((x (BitVec 64))) (BitVec 64) (bvlshr x #x0000000000000004))
(define-fun shr16 ((x (BitVec 64))) (BitVec 64) (bvlshr x #x0000000000000010))
(define-fun shl1 ((x (BitVec 64))) (BitVec 64) (bvshl x #x0000000000000001))
(define-fun if0 ((x (BitVec 64)) (y (BitVec 64)) (z (BitVec 64))) (BitVec 64) (ite (= x #x0000000000000001) y z))
(define-fun func22  ((A (BitVec 64)) ) (BitVec 64) (bvand A  #x0000000000000001 ))
(define-fun func23  ((A (BitVec 64)) (B (BitVec 64)) (C (BitVec 64)) ) (BitVec 64) (bvand (bvlshr B  C ) A ))
(define-fun func24  ((A (BitVec 64)) (B (BitVec 64)) ) (BitVec 64) (bvand (bvlshr B  #x0000000000000001 ) A ))
(define-fun func25  ((A (BitVec 64)) (B (BitVec 64)) ) (BitVec 64) (bvand (bvlshr B  #x0000000000000010 ) A ))
(define-fun func26  ((A (BitVec 64)) (B (BitVec 64)) ) (BitVec 64) (bvand (bvlshr B  #x0000000000000004 ) A ))
(define-fun func27  ((A (BitVec 64)) (B (BitVec 64)) (C (BitVec 64)) (D (BitVec 64)) ) (BitVec 64) (bvand (bvlshr (bvlshr C  D ) B ) A ))
(define-fun func28  ((A (BitVec 64)) (B (BitVec 64)) ) (BitVec 64) (bvand (bvlshr A  B ) #x0000000000000001 ))
(define-fun func29  ((A (BitVec 64)) (B (BitVec 64)) ) (BitVec 64) (bvlshr A  B ))
(define-fun func30  ((A (BitVec 64)) (B (BitVec 64)) (C (BitVec 64)) ) (BitVec 64) (bvlshr (bvlshr B  C ) A ))
(define-fun func31  ((A (BitVec 64)) (B (BitVec 64)) ) (BitVec 64) (bvlshr (bvlshr B  #x0000000000000010 ) A ))
(define-fun func32  ((A (BitVec 64)) (B (BitVec 64)) ) (BitVec 64) (bvlshr (bvlshr B  #x0000000000000004 ) A ))
(define-fun func33  ((A (BitVec 64)) (B (BitVec 64)) (C (BitVec 64)) (D (BitVec 64)) ) (BitVec 64) (bvlshr (bvlshr (bvlshr C  D ) B ) A ))
(define-fun func34  ((A (BitVec 64)) (B (BitVec 64)) (C (BitVec 64)) ) (BitVec 64) (bvlshr (bvlshr (bvlshr C  #x0000000000000010 ) B ) A ))
(define-fun func35  ((A (BitVec 64)) (B (BitVec 64)) ) (BitVec 64) (bvlshr (bvlshr B  #x0000000000000001 ) A ))
(define-fun func36  ((A (BitVec 64)) (B (BitVec 64)) ) (BitVec 64) (bvlshr (bvlshr A  B ) #x0000000000000001 ))
(define-fun func37  ((A (BitVec 64)) (B (BitVec 64)) ) (BitVec 64) (bvlshr (bvlshr A  B ) #x0000000000000004 ))
(define-fun func38  ((A (BitVec 64)) (B (BitVec 64)) (C (BitVec 64)) ) (BitVec 64) (bvlshr (bvshl B  C ) A ))
(define-fun func39  ((A (BitVec 64)) (B (BitVec 64)) ) (BitVec 64) (bvlshr (bvshl B  #x0000000000000001 ) A ))
(define-fun func40  ((A (BitVec 64)) (B (BitVec 64)) ) (BitVec 64) (bvlshr (bvnot B ) A ))
(define-fun func41  ((A (BitVec 64)) ) (BitVec 64) (bvlshr (bvnot A ) #x0000000000000010 ))
(define-fun func42  ((A (BitVec 64)) (B (BitVec 64)) (C (BitVec 64)) ) (BitVec 64) (bvlshr (bvadd B  C ) A ))
(define-fun func44  ((A (BitVec 64)) (B (BitVec 64)) (C (BitVec 64)) ) (BitVec 64) (bvshl (bvlshr B  C ) A ))
(define-fun func45  ((A (BitVec 64)) (B (BitVec 64)) ) (BitVec 64) (bvshl (bvlshr B  #x0000000000000001 ) A ))
(define-fun func46  ((A (BitVec 64)) (B (BitVec 64)) ) (BitVec 64) (bvshl (bvlshr A  B ) #x0000000000000001 ))
(define-fun func47  ((A (BitVec 64)) (B (BitVec 64)) ) (BitVec 64) (bvshl (bvnot B ) A ))
(define-fun func48  ((A (BitVec 64)) ) (BitVec 64) (bvshl (bvnot A ) #x0000000000000001 ))
(define-fun func50  ((A (BitVec 64)) ) (BitVec 64) (bvnot (bvshl A  #x0000000000000001 )))
(define-fun func51  ((A (BitVec 64)) ) (BitVec 64) (bvadd A  #x0000000000000001 ))
(define-fun func52  ((A (BitVec 64)) (B (BitVec 64)) (C (BitVec 64)) ) (BitVec 64) (bvadd (bvlshr B  C ) A ))
(define-fun func53  ((A (BitVec 64)) (B (BitVec 64)) (C (BitVec 64)) ) (BitVec 64) (bvadd (bvshl B  C ) A ))
(define-fun func54  ((A (BitVec 64)) (B (BitVec 64)) ) (BitVec 64) (bvadd (bvshl B  #x0000000000000001 ) A ))
(define-fun func55  ((A (BitVec 64)) ) (BitVec 64) (bvor A  #x0000000000000001 ))
(define-fun func56  ((A (BitVec 64)) (B (BitVec 64)) (C (BitVec 64)) ) (BitVec 64) (bvor (bvlshr B  C ) A ))
(synth-fun f ( (x (BitVec 64))) (BitVec 64)
(
(Start (BitVec 64) (
   #x0000000000000000
   #x0000000000000001
   x
   (func24 Start Start)
   (func26 Start Start)
   (func27 Start Start Start Start)
   (func28 Start Start)
   (func29 Start Start)
   (func30 Start Start Start)
   (func31 Start Start)
   (func32 Start Start)
   (func33 Start Start Start Start)
   (func36 Start Start)
   (func42 Start Start Start)
   (func44 Start Start Start)
   (func47 Start Start)
   (func51 Start)
   (bvnot Start)
   (shl1 Start)
   (shr1 Start)
   (bvand Start Start)
   (bvor Start Start)
   (bvxor Start Start)
   (bvadd Start Start)
   (if0 Start Start Start)
))
))
(constraint (= (f #x86399f9585550b9d) #x000218e67e561554))
(constraint (= (f #x37ca819863a4a2f5) #x0000df2a06618e90))
(constraint (= (f #x7b33a32da933af79) #x0001ecce8cb6a4cc))
(constraint (= (f #x3c3f63c3d44ebe71) #x0000f0fd8f0f5138))
(constraint (= (f #x4cadb82281527e75) #x000132b6e08a0548))
(constraint (= (f #xee23a6c3e6d6c10f) #x0003b88e9b0f9b58))
(constraint (= (f #xfe0a17cf4a0013db) #x0003f8285f3d2800))
(constraint (= (f #xdc39cab6d4dfaf23) #x000370e72adb537c))
(constraint (= (f #x9cfdd3f8cace9d9f) #x000273f74fe32b38))
(constraint (= (f #x58d5542def455de3) #x0001635550b7bd14))
(constraint (= (f #x935265ddbec8d1a8) #x0000000000000001))
(constraint (= (f #x59efdb8363289620) #x0000000000000001))
(constraint (= (f #xcdd7857a25736b7c) #x0000000000000001))
(constraint (= (f #xc041939bc5bd511c) #x0000000000000001))
(constraint (= (f #xd587d6774f7323b8) #x0000000000000001))
(constraint (= (f #x0000000000000001) #x0000000000000000))
(constraint (= (f #xe3f17d81fe0a50e6) #x0000000000000001))
(constraint (= (f #x491f263cf960920e) #x0000000000000001))
(constraint (= (f #x3e429f438d11ecea) #x0000000000000001))
(constraint (= (f #xe2a8b2ac51c3b522) #x0000000000000001))
(constraint (= (f #xea9b0243aacd5f6e) #x0000000000000001))
(constraint (= (f #x4f152549aa1c0cad) #x00013c549526a870))
(constraint (= (f #x6577152a9444cd1e) #x0000000000000001))
(constraint (= (f #xe8f22fb9aecbcd0f) #x0003a3c8bee6bb2c))
(constraint (= (f #x588824016d301410) #x0000000000000001))
(constraint (= (f #xb31de052362c5b03) #x0002cc778148d8b0))
(constraint (= (f #xbe8e8b57a3153d99) #x0002fa3a2d5e8c54))
(constraint (= (f #xb2c2c2fdf2d68c43) #x0002cb0b0bf7cb58))
(constraint (= (f #xb0ea8022f50224cd) #x0002c3aa008bd408))
(constraint (= (f #x14902b98ce395b96) #x0000000000000001))
(constraint (= (f #xfb526cd839b873c8) #x0000000000000001))
(check-synth)
